qe/outputs/qe/qe_queries_cbrdelay_obs_redo/T=5,eliminate=[I_0,I_1,I_2,I_3,I_4,L_1,L_2,L_3,L_4,lhs=S_4].smt2
; benchmark generated from python API
(set-info :status unknown)
(declare-fun S_1 () Real)
(declare-fun S_4 () Real)
(declare-fun C () Real)
(declare-fun S_0 () Real)
(declare-fun S_3 () Real)
(declare-fun S_2 () Real)
(declare-fun B () Real)
(declare-fun L_0 () Real)
(declare-fun A_0 () Real)
(declare-fun A_3 () Real)
(declare-fun A_1 () Real)
(declare-fun A_4 () Real)
(declare-fun A_2 () Real)
(assert
 (let (($x8366 (>= (+ S_3 (* (- 1.0) B) (* (- 1.0) C) (* (- 1.0) S_1)) 0.0)))
 (let (($x440 (>= (+ S_3 (* (- 1.0) B) (* (- 2.0) C) (* (- 1.0) S_0)) 0.0)))
 (let (($x34 (>= L_0 0.0)))
 (let (($x530 (>= C 5.0)))
 (let ((?x352 (* (- 1.0) S_2)))
 (let ((?x377 (* (- 1.0) A_3)))
 (let ((?x303 (* (- 1.0) C)))
 (let ((?x236 (* (- 1.0) B)))
 (let (($x5706 (<= (+ B C A_3 (* (- 1.0) A_1) (* (- 1.0) S_4) S_0) 0.0)))
 (let (($x2346 (<= (+ (* 3.0 C) (* (- 1.0) S_4) S_0) 0.0)))
 (let (($x2284 (<= (+ (* (- 1.0) L_0) A_1 ?x303 (* (- 1.0) S_0) ?x236) 0.0)))
 (let (($x1998 (<= (+ (* (- 1.0) S_3) (* (- 1.0) L_0) A_1 C ?x236) 0.0)))
 (let (($x3026 (<= (+ ?x236 (* (- 2.0) C) ?x377 A_1 S_4 (* (- 1.0) S_1)) 0.0)))
 (let (($x5828 (<= (+ B ?x303 A_3 (* (- 1.0) A_1) (* (- 1.0) S_4) S_2) 0.0)))
 (let (($x4312 (<= (+ C (* (- 1.0) S_4) S_2) 0.0)))
 (let (($x1011 (<= (+ (* (- 1.0) L_0) A_3 (* (- 1.0) S_4)) 0.0)))
 (let (($x14640 (or (not (<= 0.0 (+ ?x236 (* 2.0 C) ?x377 A_1))) (not (<= 0.0 (+ S_3 A_3 (* (- 1.0) A_1) (* (- 1.0) S_4)))))))
 (let (($x5697 (<= (+ B A_3 (* (- 1.0) A_1) (* (- 1.0) S_4) S_1) 0.0)))
 (let (($x1632 (<= (+ (* 2.0 C) (* (- 1.0) S_4) S_1) 0.0)))
 (let (($x516 (not (<= 0.0 (+ S_3 ?x236 (* 2.0 C) (* (- 1.0) S_4))))))
 (let (($x434 (<= 0.0 (+ ?x236 (* 2.0 C) ?x377 A_1))))
 (let (($x2306 (not $x1998)))
 (let (($x1430 (not (<= (+ L_0 ?x377 ?x303 S_4 B) 0.0))))
 (let (($x3481 (<= (+ (* (- 1.0) L_0) A_3 C (* (- 1.0) S_4) ?x236) 0.0)))
 (let (($x14692 (or $x1632 (not (<= (+ L_0 ?x377 C S_2 B) 0.0)) (not (<= (+ (* (- 1.0) L_0) A_1 ?x352 ?x236) 0.0)))))
 (let (($x3132 (<= (+ ?x236 (* (- 3.0) C) ?x377 A_1 S_4 (* (- 1.0) S_0)) 0.0)))
 (let (($x3142 (<= (+ (* (- 1.0) A_0) L_0 ?x236 (* (- 2.0) C) ?x377 A_1 S_4) 0.0)))
 (let ((?x1029 (* (- 1.0) S_0)))
 (let ((?x380 (* (- 1.0) A_4)))
 (let ((?x983 (* (- 2.0) C)))
 (let (($x108 (>= S_1 S_0)))
 (let (($x111 (>= S_2 S_1)))
 (let (($x114 (>= S_3 S_2)))
 (let (($x117 (>= S_4 S_3)))
 (let (($x120 (>= A_2 A_1)))
 (let (($x121 (>= A_3 A_2)))
 (let (($x122 (>= A_4 A_3)))
 (and (<= (+ A_0 (* (- 1.0) L_0)) S_3) $x122 $x121 $x120 $x117 $x114 $x111 $x108 (or (<= (+ ?x303 A_2 (* (- 1.0) A_1)) 0.0) $x1632) (not (<= 0.0 (+ (* (- 1.0) A_0) S_3 L_0 ?x236 ?x303))) (or $x516 (<= (+ ?x303 A_2 (* (- 1.0) A_1)) 0.0)) (<= (+ L_0 ?x380 S_4) 0.0) (<= (+ ?x236 (* (- 3.0) C) ?x380 A_2 S_4 ?x1029) 0.0) (<= (+ (* (- 1.0) A_0) L_0 ?x236 ?x983 ?x380 A_2 S_4) 0.0) (or $x516 (not (<= (+ ?x377 A_2 C) 0.0))) (or (<= (+ ?x303 A_3 (* (- 1.0) A_2)) 0.0) $x2346) (or (<= (+ ?x303 A_3 (* (- 1.0) A_2)) 0.0) $x4312) (or $x1632 (<= (+ ?x303 A_3 (* (- 1.0) A_2)) 0.0)) (not (<= 0.0 (+ ?x236 C))) (or (<= (+ ?x303 A_2 (* (- 1.0) A_1)) 0.0) $x2346) (or (<= (+ ?x303 A_2 (* (- 1.0) A_1)) 0.0) $x4312) (<= (+ (* (- 1.0) S_3) ?x236 ?x380 A_2 S_4) 0.0) (<= (+ ?x236 ?x303 ?x380 A_2 S_4 ?x352) 0.0) (<= (+ ?x236 ?x983 ?x380 A_2 S_4 (* (- 1.0) S_1)) 0.0) (<= (+ (* (- 1.0) A_0) L_0 ?x236 ?x303 ?x380 A_1 S_4) 0.0) (<= (+ (* (- 1.0) S_3) ?x236 C ?x380 A_1 S_4) 0.0) (<= (+ ?x236 ?x303 ?x380 A_1 S_4 (* (- 1.0) S_1)) 0.0) (<= (+ ?x236 ?x983 ?x380 A_1 S_4 ?x1029) 0.0) (<= (+ ?x236 ?x380 A_1 S_4 ?x352) 0.0) $x3142 $x3132 (<= (+ (* (- 1.0) S_3) ?x236 ?x377 A_1 S_4) 0.0) (or $x1430 $x1632 $x2306) (or $x434 $x1632 (<= (+ (* (- 1.0) L_0) A_1 ?x352 ?x236) 0.0)) $x14692 (or $x2306 $x3481 $x4312) (or $x2306 $x2346 $x3481) (or $x1430 $x2306 $x2346) (or $x434 $x516) (or $x1011 (not $x2284) $x2346) (or $x434 $x1998 $x2346) (or $x1632 $x1998 $x5697) (or $x1011 $x1632 $x5697) $x14640 (or $x1998 $x4312 $x5828) (or $x1011 $x4312 $x5828) $x3026 (or $x1998 $x2346 $x5706) (or $x2284 $x2346 $x5706) (<= (+ ?x236 ?x303 ?x377 A_1 S_4 ?x352) 0.0) $x530 $x34 (not (>= (+ S_3 L_0 (* (- 1.0) A_1)) 0.0)) (<= (+ (* (- 1.0) S_3) ?x983 S_4) 0.0) (<= (+ L_0 ?x377 ?x303 S_4) 0.0) (<= (+ (* (- 1.0) A_0) L_0 ?x303 S_1) 0.0) (<= (+ (* (- 1.0) S_3) C S_1) 0.0) (<= (+ (* (- 1.0) A_0) L_0 (* (- 4.0) C) S_4) 0.0) (<= (+ (* (- 1.0) A_0) L_0 S_0) 0.0) (<= (+ C ?x352 S_0) 0.0) (<= (+ (* (- 3.0) C) S_4 ?x352) 0.0) (<= (+ ?x983 S_1 ?x1029) 0.0) (<= (+ S_3 (* (- 4.0) C) ?x1029) 0.0) (<= (+ (* (- 5.0) C) S_4 ?x1029) 0.0) (<= (+ (* (- 1.0) A_0) S_3 L_0 (* (- 3.0) C)) 0.0) (not $x440) (not (>= (+ S_3 ?x236 ?x352) 0.0)) (<= (+ S_3 ?x983 ?x352) 0.0) (<= (+ (* (- 1.0) A_0) L_0 ?x983 S_2) 0.0) (<= (+ ?x983 S_2 (* (- 1.0) S_1)) 0.0) (not $x8366) (<= (+ (* (- 3.0) C) S_2 ?x1029) 0.0) (<= (+ S_3 (* (- 3.0) C) (* (- 1.0) S_1)) 0.0) (<= (+ (* (- 1.0) S_3) (* 2.0 C) S_0) 0.0) (<= (+ (* (- 4.0) C) S_4 (* (- 1.0) S_1)) 0.0))))))))))))))))))))))))))))))))))))))))
(check-sat)
